c --- [ banner ] -------------------------------------------------------------
c 
c CaDiCaL Radically Simplified CDCL SAT Solver
c Copyright (c) 2016-2021 A. Biere, M. Fleury, N. Froleyks
c 
c Version 1.5.2 a5f15211db36c3956764e18194dd5bd63bf3b5e6
c g++ (GCC) 9.3.0 -Wall -Wextra -O3 -DNDEBUG
c Fri Oct 21 01:27:37 EDT 2022 Linux gra-login3 3.10.0-1160.66.1.el7.x86_64 x86_64
c 
c --- [ limit ] --------------------------------------------------------------
c 
c setting conflict limit to 200000 conflicts (due to '200000')
c 
c --- [ parsing input ] ------------------------------------------------------
c 
c reading DIMACS file from '33.cubes5226.adj'
c opening file to read '33.cubes5226.adj'
c found 'p cnf 6160 1595473' header
c parsed 1595473 clauses in 18.90 seconds process time
c closing file '33.cubes5226.adj'
c after reading 1457566760 bytes 1390.0 MB
c 
c --- [ options ] ------------------------------------------------------------
c 
c all options are set to their default value
c 
c --- [ solving ] ------------------------------------------------------------
c 
c time measured in process time since initialization
c 
c  seconds    reductions  redundant   irredundant
c          MB     restarts       trail       variables
c            level   conflicts       glue         remaining
c 
c * 18.90 1379  0 0   0    0    0  0% 0 1595422 2346 38%
c { 19.59 1411  0 0   0    0    0  0% 0 1595422 2346 38%
c i 20.63 1453 1063 0   0   11    9 39% 2 1595422 2328 38%
c i 22.13 1481 440 0   6   50   38 33% 16 1595422 2312 38%
c i 22.42 1482 400 0   7   56   41 32% 16 1595422 2311 38%
c i 22.81 1484 195 0  13  125   76 31% 17 1595422 2310 38%
c i 22.81 1484 193 0  13  126   76 31% 17 1595422 2309 37%
c i 22.85 1484 167 0  13  146   94 31% 16 1595422 2308 37%
c i 22.88 1484 139 0  13  175  105 31% 16 1595422 2307 37%
c i 22.90 1484 134 0  13  182  106 31% 15 1595422 2306 37%
c i 22.94 1484 133 0  13  184  107 31% 15 1595422 2305 37%
c i 23.01 1484 129 0  13  189  111 31% 15 1595422 2304 37%
c i 23.05 1484 128 0  13  193  113 31% 15 1595422 2303 37%
c i 23.11 1487 127 0  13  194  113 31% 15 1595422 2302 37%
c i 23.24 1488 124 0  14  203  119 31% 17 1595422 2301 37%
c i 23.40 1488 122 0  16  212  127 31% 17 1595422 2300 37%
c i 23.46 1488 118 0  18  221  134 31% 17 1595422 2299 37%
c i 23.50 1488 118 0  19  222  134 31% 17 1595422 2297 37%
c i 23.54 1488 115 0  20  230  139 31% 18 1595422 2296 37%
c i 23.63 1489 110 0  24  241  149 31% 17 1595422 2285 37%
c 
c  seconds     reductions  redundant    irredundant
c          MB      restarts       trail        variables
c             level   conflicts       glue          remaining
c 
c i 23.70 1489 108 0  24  246  153 31% 17 1595422 2284 37%
c i 23.70 1489 107 0  24  248  154 31% 17 1595422 2283 37%
c i 23.70 1489 107 0  24  249  154 31% 17 1595422 2282 37%
c i 23.70 1489 106 0  24  251  155 31% 17 1595422 2281 37%
c i 23.70 1489 106 0  24  252  155 31% 17 1595422 2280 37%
c i 23.73 1489 104 0  24  258  160 31% 17 1595422 2279 37%
c i 23.83 1489 97 0  28  289  187 31% 18 1595422 2278 37%
c - 28.28 1373 97 1  30  300  194 31% 17 169402 2278 37%
c i 28.53 1373 100 1  30  350  233 30% 16 169402 2277 37%
c i 28.55 1373 100 1  30  355  236 30% 17 169402 2276 37%
c i 28.60 1373 99 1  31  366  243 30% 17 169402 2275 37%
c i 28.73 1373 97 1  37  387  261 29% 18 169402 2274 37%
c i 28.76 1373 95 1  39  395  265 29% 18 169402 2272 37%
c i 28.86 1373 78 1  40  491  287 27% 16 169402 2271 37%
c i 28.89 1373 78 1  40  497  291 27% 16 169402 2270 37%
c i 28.90 1373 78 1  40  502  295 27% 16 169402 2269 37%
c i 28.96 1373 89 1  40  561  319 27% 15 169402 2268 37%
c i 29.00 1373 89 1  40  568  321 27% 15 169402 2262 37%
c i 29.17 1373 89 1  45  586  337 27% 17 169402 2256 37%
c i 29.17 1373 89 1  46  589  337 27% 17 169402 2253 37%
c 
c  seconds    reductions  redundant   irredundant
c          MB     restarts       trail       variables
c            level   conflicts       glue         remaining
c 
c i 29.24 1373 89 1  49  601  348 27% 17 169402 2252 37%
c i 29.35 1373 87 1  58  633  374 27% 18 169402 2251 37%
c i 29.37 1373 87 1  60  638  378 27% 18 169402 2250 37%
c i 29.46 1373 84 1  67  671  406 27% 19 169402 2249 37%
c i 29.57 1373 83 1  72  690  421 27% 19 169402 2248 36%
c i 29.65 1373 83 1  74  696  426 27% 19 169402 2247 36%
c i 29.92 1373 79 1  94  776  489 27% 20 169402 2246 36%
c i 30.08 1373 76 1 106  833  533 27% 20 169402 2245 36%
c i 30.24 1373 75 1 108  870  557 27% 20 169402 2244 36%
c i 30.25 1373 74 1 108  877  560 28% 20 169402 2243 36%
c i 30.27 1373 74 1 108  885  564 28% 20 169402 2242 36%
c i 30.29 1373 73 1 108  895  572 28% 20 169402 2241 36%
c i 30.51 1373 70 1 118  974  638 28% 20 169402 2240 36%
c i 30.54 1373 70 1 118  981  644 28% 20 169402 2239 36%
c i 30.57 1373 69 1 118  998  658 28% 20 169402 2238 36%
c } 30.58 1373 69 1 118 1000  659 28% 20 169402 2238 36%
c [ 30.58 1373  0 1 118 1000  659  0% 0 169402 2238 36%
c O 30.60 1373 20 1 118 1002  661 21% 4 169402 2238 36%
c i 30.70 1373  6 1 118 1028  666 21% 5 169402 2237 36%
c - 31.08 1442  9 2 118 1039  578 23% 7 169126 2237 36%
c 
c  seconds    reductions  redundant   irredundant
c          MB     restarts       trail       variables
c            level   conflicts       glue         remaining
c 
c i 31.27 1442 16 2 118 1200  695 30% 14 169126 2236 36%
c i 31.30 1442 16 2 118 1249  727 30% 14 169126 2235 36%
c i 31.30 1442 16 2 118 1258  735 30% 14 169126 2234 36%
c i 31.30 1442 16 2 118 1259  735 30% 14 169126 2233 36%
c i 31.31 1442 16 2 118 1262  737 30% 14 169126 2232 36%
c i 31.31 1442 16 2 118 1268  740 30% 14 169126 2231 36%
c i 31.31 1442 16 2 118 1272  742 30% 14 169126 2230 36%
c i 31.31 1442 16 2 118 1274  741 30% 14 169126 2229 36%
c i 31.33 1442 17 2 118 1286  751 30% 14 169126 2228 36%
c i 31.34 1442 18 2 118 1316  771 30% 15 169126 2227 36%
c i 31.35 1442 18 2 118 1341  786 30% 15 169126 2226 36%
c i 31.39 1442 17 2 118 1425  825 30% 14 169126 2225 36%
c i 31.39 1442 17 2 118 1429  828 30% 14 169126 2224 36%
c i 31.40 1442 17 2 118 1475  847 30% 14 169126 2223 36%
c i 31.40 1442 17 2 118 1476  847 31% 14 169126 2222 36%
c i 31.41 1442 17 2 118 1506  860 31% 14 169126 2221 36%
c i 31.51 1442 16 2 118 1534  873 31% 14 169126 2220 36%
c i 31.56 1442 15 2 118 1640  895 31% 13 169126 2219 36%
c i 31.59 1442 16 2 118 1739  964 31% 13 169126 2218 36%
c i 31.59 1442 16 2 118 1752  971 31% 13 169126 2217 36%
c 
c  seconds    reductions  redundant   irredundant
c          MB     restarts       trail       variables
c            level   conflicts       glue         remaining
c 
c i 31.60 1442 15 2 118 1774  976 31% 13 169126 2216 36%
c i 31.63 1442 15 2 118 1887 1032 31% 13 169126 2215 36%
c i 31.69 1442 16 2 119 2048 1093 31% 13 169126 2214 36%
c i 31.70 1442 17 2 119 2062 1102 31% 14 169126 2213 36%
c i 31.71 1442 17 2 119 2086 1116 31% 14 169126 2212 36%
c - 31.95 1439 19 3 119 2144  859 31% 15 169055 2212 36%
c i 32.35 1439 22 3 119 2635 1179 51% 18 169055 2211 36%
c ] 32.50 1439 21 3 119 3000 1391 51% 17 169055 2211 36%
c { 32.50 1439 69 3 119 3000 1391 77% 20 169055 2211 36%
c F 32.51 1439 69 3 119 3008 1394 77% 20 169055 2211 36%
c i 32.55 1439 69 3 119 3011 1396 77% 20 169055 2210 36%
c i 32.74 1439 58 3 119 3220 1498 69% 18 169055 2209 36%
c i 32.76 1439 58 3 119 3227 1504 68% 18 169055 2208 36%
c i 32.93 1439 57 3 133 3301 1560 67% 18 169055 2207 36%
c i 32.99 1439 57 3 137 3342 1591 67% 18 169055 2206 36%
c i 33.24 1439 58 3 155 3417 1651 65% 19 169055 2205 36%
c i 33.41 1439 57 3 166 3461 1683 64% 19 169055 2204 36%
c i 33.43 1439 58 3 168 3469 1689 64% 20 169055 2203 36%
c - 33.92 1374 54 4 175 3620 1400 63% 19 169028 2203 36%
c i 34.27 1374 48 4 175 3925 1526 60% 17 169028 2202 36%
c 
c  seconds    reductions  redundant   irredundant
c          MB     restarts       trail       variables
c            level   conflicts       glue         remaining
c 
c i 34.37 1374 46 4 175 4044 1590 59% 17 169028 2201 36%
c i 34.55 1374 42 4 175 4312 1706 58% 16 169028 2200 36%
c i 34.55 1374 42 4 175 4314 1707 58% 16 169028 2199 36%
c i 34.59 1374 42 4 179 4341 1727 58% 17 169028 2198 36%
c i 34.60 1374 42 4 181 4350 1733 58% 17 169028 2197 36%
c i 35.26 1374 39 4 204 4929 2151 55% 16 169028 2196 36%
c 2 35.70 1374 40 4 218 5000 3239 55% 16 168970 2186 35%
c p 40.67 1374 40 4 218 5000 6023 55% 16 168970 2121 34%
c d 40.93 1374 40 4 218 5000 6009 55% 16 168774 2118 34%
c - 42.09 1375 40 5 296 5461 1927 54% 17 168774 2118 34%
c # 42.71 1375 37 5 345 6010 2263 51% 17 168774 2118 34%
c } 44.28 1375 36 5 445 7001 2896 50% 17 168774 2118 34%
c [ 44.28 1375 21 5 445 7001 2896 51% 17 168774 2118 34%
c - 44.54 1375 20 6 446 7672 2454 51% 17 168774 2118 34%
c ] 45.04 1375 18 6 447 9687 3600 51% 15 168774 2118 34%
c 1 45.04 1375 18 6 447 9687 3600 51% 15 168774 2118 34%
c 
c --- [ writing output ] -----------------------------------------------------
c 
c writing simplified CNF to DIMACS file 'simp/33.cubes5226.adj.simp1'
c * 45.04 1375 18 6 447 9687 3600 51% 15 168774 2118 34%
c opening file to write 'simp/33.cubes5226.adj.simp1'
c writing 'p cnf 6160 168774' header
c closing file 'simp/33.cubes5226.adj.simp1'
c after writing 67309078 bytes 64.2 MB
c wrote 168774 clauses in 0.60 seconds process time
c 
c --- [ writing extension ] --------------------------------------------------
c 
c writing extension stack to 'simp/33.cubes5226.adj.ext1'
c opening file to write 'simp/33.cubes5226.adj.ext1'
c closing file 'simp/33.cubes5226.adj.ext1'
c after writing 13687 bytes 0.0 MB
c wrote 911 witnesses in 0.00 seconds process time
c 
c --- [ result ] -------------------------------------------------------------
c 
s SATISFIABLE
c 
c --- [ run-time profiling ] -------------------------------------------------
c 
c process time taken by individual solving procedures
c (percentage relative to process time for solving)
c 
c        20.60   78.81% search
c        18.90   72.30% parse
c        17.24   65.94% unstable
c         5.54   21.19% simplify
c         4.97   19.02% probe
c         2.67   10.22% stable
c         0.69    2.65% lucky
c         0.03    0.12% ternary
c   =================================
c        26.14   57.28% solve
c 
c last line shows process time for solving
c (percentage relative to total process time)
c 
c --- [ statistics ] ---------------------------------------------------------
c 
c chronological:              1995        20.59 %  of conflicts
c conflicts:                  9687       370.58    per second
c decisions:                 36249      1386.71    per second
c fixed:                       885        14.37 %  of all variables
c learned:                    9428        97.33 %  per conflict
c learned_lits:            1407907       100.00 %  learned literals
c minimized:                     0         0.00 %  learned literals
c shrunken:                1052756        74.77 %  learned literals
c minishrunken:              55417         3.94 %  learned literals
c propagations:            1508206         0.06 M  per second
c reduced:                    2304        23.78 %  per conflict
c rephased:                      3      3229.00    interval
c restarts:                    447        21.67    interval
c stabilizing:                   2        48.37 %  of conflicts
c substituted:                  13         0.21 %  of all variables
c subsumed:                   3468         0.10 %  of all clauses
c ternary:                    1055         0.60 %  of resolved
c weakened:                     26         2.00    average size
c 
c seconds are measured in process time for solving
c 
c --- [ resources ] ----------------------------------------------------------
c 
c total process time since initialization:        45.64    seconds
c total real time since initialization:           47.16    seconds
c maximum resident set size of process:         1507.01    MB
c 
c --- [ shutting down ] ------------------------------------------------------
c 
c exit 10
WARNING! DIMACS header mismatch: wrong number of variables.
============================[ Problem Statistics ]=============================
|                                                                             |
|  Number of variables:          6120                                         |
|  Number of clauses:          168774                                         |
|  Parse time:                   1.01 s                                       |
|  Simplification time:          0.02 s                                       |
|                                                                             |
============================[ Search Statistics ]====================================================
| Conflicts |          ORIGINAL         |          LEARNT          | Num Sols |      SUBGRAPHS      |
|           |    Vars  Clauses Literals |    Limit  Clauses Lit/Cl |          | Canonical Noncanon. |
=====================================================================================================
|       100 |    6025   168774 14716513 |     2000      100     13 |        0 |        35         0 |
|       457 |    6025   168981 14719176 |     2000      457     22 |        0 |       108       207 |
|       766 |    6025   169065 14720305 |     2000      766     24 |        0 |       169       291 |
|      1126 |    6025   169088 14721123 |     2000     1126     47 |        0 |       192       314 |
|      1800 |    6025   169256 14723805 |     2000     1800     54 |        0 |       286       482 |
|      2605 |    6025   169302 14724522 |     3602     1607     47 |        0 |       309       528 |
|      3995 |    6025   169553 14727801 |     3602     2997     56 |        0 |       395       779 |
|      5847 |    6025   169697 14730691 |     5005     3052     46 |        0 |       443       923 |
|      8883 |    6025   170171 14738365 |     6308     3591     46 |        0 |       582      1397 |
|     13469 |    6020   170913 14748557 |     7554     5022     39 |        0 |       853      2139 |
|     20642 |    6020   172320 14764355 |     8783     8425     54 |        0 |      1201      3546 |
=====================================================================================================
Number of solutions   : 0
Canonical subgraphs   : 1225           (50 /sec)
          order  3    : 1              (166667 /sec)
          order  4    : 1              (500000 /sec)
          order  5    : 1              (200000 /sec)
          order  6    : 1              (52632 /sec)
          order  7    : 1              (8333 /sec)
          order  8    : 3              (1684 /sec)
          order  9    : 9              (424 /sec)
          order 10    : 43             (219 /sec)
          order 11    : 90             (271 /sec)
          order 12    : 54             (161 /sec)
          order 13    : 140            (105 /sec)
          order 14    : 154            (75 /sec)
          order 15    : 222            (50 /sec)
          order 16    : 271            (38 /sec)
          order 17    : 195            (30 /sec)
          order 18    : 28             (18 /sec)
          order 19    : 11             (15 /sec)
          order 20    : 0              (-nan /sec)
          order 21    : 0              (-nan /sec)
          order 22    : 0              (-nan /sec)
Noncanonical subgraphs: 3699           (311 /sec)
          order  3    : 0              (-nan /sec)
          order  4    : 0              (-nan /sec)
          order  5    : 0              (-nan /sec)
          order  6    : 0              (-nan /sec)
          order  7    : 0              (-nan /sec)
          order  8    : 0              (-nan /sec)
          order  9    : 0              (-nan /sec)
          order 10    : 0              (-nan /sec)
          order 11    : 0              (-nan /sec)
          order 12    : 0              (-nan /sec)
          order 13    : 368            (5922 /sec)
          order 14    : 330            (2239 /sec)
          order 15    : 1886           (429 /sec)
          order 16    : 517            (359 /sec)
          order 17    : 134            (251 /sec)
          order 18    : 464            (87 /sec)
          order 19    : 0              (-nan /sec)
          order 20    : 0              (-nan /sec)
          order 21    : 0              (-nan /sec)
Canonicity checking   : 24.5931 s
Noncanonicity checking: 11.8939 s
Total canonicity time : 36.487 s
database reductions   : 6
restarts              : 78
conflicts             : 22020          (462 /sec)
decisions             : 46623          (0.00 % random) (977 /sec)
propagations          : 2266713        (47509 /sec)
conflict literals     : 1756219        (50.37 % deleted)
actual reward         : 0.115092
Memory used           : 96.00 MB
CPU time              : 47.7109 s

UNSATISFIABLE
